NAME : Snowball 18
COMMENT : Generated for OptaPlanner. Demonstrates a snowball effect on the optimal solution in TSP.
TYPE : TSP
DIMENSION : 18
EDGE_WEIGHT_TYPE : EUC_2D
NODE_COORD_SECTION
1 0 10
2 7.0711 7.0711
3 10 0
4 7.0711 -7.0711
5 0 -10
6 -7.0711 -7.0711
7 -10 0
8 -7.0711 7.0711
9 0 4.4
10 3.1113 3.1113
11 4.4 0
12 3.1113 -3.1113
13 0 -4.4
14 -3.1113 -3.1113
15 -4.4 0
16 -3.1113 3.1113
17 0 7.5
18 0 -7.5
EOF
